set F_UNIQ := 6 9 12 15;
set F_NODES[6] := 6 7 8;
set F_NODES[9] := 9 10 11;
set F_NODES[12] := 12 13 14;
set F_NODES[15] := 15 16 17;
#definition

# set
set V := 1 2 3 4 5 ; 	# customer set
set F := 6 9 12 15 7 8 10 11 13 14 16 17 ;#recharging & battery swapping station
set D0 :=0;
set Dsig :=18;


# param
param CV := 200;    		# ECV fixed cost(Topic Given)
param C := 200;   		# ECV max load
param Q := 77.75; 		# ECV/BSV battery level
param h := 1;     		# ECV consumption

param CB := 267;    		# BSV fixed cost(Topic Given)
param Qplun := 5;       # BSV max load(battery)
param hplun := 1;     	# BSV consumption
param W := 155.50;		# BSV battery level

param Ct := 10;    		# travel cost
param Cr := 100;    		# recharging cost
param lamda := 0.00;	# battery swap time
param Cb ;  	    # battery swap cost(BSS/BSV)
param n :=5;	   		# number of customers
param g :=1.17 ;     	# the recharging rate of ECV 



# customer demend
param m :=
0 0
1 40
2 40
3 16
4 9
5 40
6 0
9 0
12 0
15 0
7 0
8 0
10 0
11 0
13 0
14 0
16 0
17 0
18 0;

param e :=
0 0
1 69
2 94
3 150
4 14
5 43
6 0
9 0
12 0
15 0
7 0
8 0
10 0
11 0
13 0
14 0
16 0
17 0
18 0;

param l :=
0 240
1 79
2 119
3 160
4 134
5 78
6 240
9 240
12 240
15 240
7 240
8 240
10 240
11 240
13 240
14 240
16 240
17 240
18 240;

param s :=
0 0
1 10
2 10
3 10
4 10
5 10
6 0
9 0
12 0
15 0
7 0
8 0
10 0
11 0
13 0
14 0
16 0
17 0
18 0;

param d : 0 1 2 3 4 5 6 9 12 15 7 8 10 11 13 14 16 17 18 :=
0 0.0000 33.5261 35.0000 14.1421 14.7648 43.0116 0.0000 36.2353 27.5136 24.0208 0.0000 0.0000 36.2353 36.2353 27.5136 27.5136 24.0208 24.0208 0.0000
1 33.5261 0.0000 40.6079 29.7321 19.2354 72.6223 33.5261 64.5368 19.9249 34.0147 33.5261 33.5261 64.5368 64.5368 19.9249 19.9249 34.0147 34.0147 33.5261
2 35.0000 40.6079 0.0000 46.0977 30.8707 74.3303 35.0000 69.1231 51.1077 11.0454 35.0000 35.0000 69.1231 69.1231 51.1077 51.1077 11.0454 11.0454 35.0000
3 14.1421 29.7321 46.0977 0.0000 17.2627 43.0116 14.1421 34.8281 16.0312 35.1710 14.1421 14.1421 34.8281 34.8281 16.0312 16.0312 35.1710 35.1710 14.1421
4 14.7648 19.2354 30.8707 17.2627 0.0000 56.6392 14.7648 49.2037 20.6155 20.8087 14.7648 14.7648 49.2037 49.2037 20.6155 20.6155 20.8087 20.8087 14.7648
5 43.0116 72.6223 74.3303 43.0116 56.6392 0.0000 43.0116 8.5440 57.2451 64.4748 43.0116 43.0116 8.5440 8.5440 57.2451 57.2451 64.4748 64.4748 43.0116
6 0.0000 33.5261 35.0000 14.1421 14.7648 43.0116 0.0000 36.2353 27.5136 24.0208 0.0000 0.0000 36.2353 36.2353 27.5136 27.5136 24.0208 24.0208 0.0000
9 36.2353 64.5368 69.1231 34.8281 49.2037 8.5440 36.2353 0.0000 48.7647 58.8218 36.2353 36.2353 0.0000 0.0000 48.7647 48.7647 58.8218 58.8218 36.2353
12 27.5136 19.9249 51.1077 16.0312 20.6155 57.2451 27.5136 48.7647 0.0000 41.4005 27.5136 27.5136 48.7647 48.7647 0.0000 0.0000 41.4005 41.4005 27.5136
15 24.0208 34.0147 11.0454 35.1710 20.8087 64.4748 24.0208 58.8218 41.4005 0.0000 24.0208 24.0208 58.8218 58.8218 41.4005 41.4005 0.0000 0.0000 24.0208
7 0.0000 33.5261 35.0000 14.1421 14.7648 43.0116 0.0000 36.2353 27.5136 24.0208 0.0000 0.0000 36.2353 36.2353 27.5136 27.5136 24.0208 24.0208 0.0000
8 0.0000 33.5261 35.0000 14.1421 14.7648 43.0116 0.0000 36.2353 27.5136 24.0208 0.0000 0.0000 36.2353 36.2353 27.5136 27.5136 24.0208 24.0208 0.0000
10 36.2353 64.5368 69.1231 34.8281 49.2037 8.5440 36.2353 0.0000 48.7647 58.8218 36.2353 36.2353 0.0000 0.0000 48.7647 48.7647 58.8218 58.8218 36.2353
11 36.2353 64.5368 69.1231 34.8281 49.2037 8.5440 36.2353 0.0000 48.7647 58.8218 36.2353 36.2353 0.0000 0.0000 48.7647 48.7647 58.8218 58.8218 36.2353
13 27.5136 19.9249 51.1077 16.0312 20.6155 57.2451 27.5136 48.7647 0.0000 41.4005 27.5136 27.5136 48.7647 48.7647 0.0000 0.0000 41.4005 41.4005 27.5136
14 27.5136 19.9249 51.1077 16.0312 20.6155 57.2451 27.5136 48.7647 0.0000 41.4005 27.5136 27.5136 48.7647 48.7647 0.0000 0.0000 41.4005 41.4005 27.5136
16 24.0208 34.0147 11.0454 35.1710 20.8087 64.4748 24.0208 58.8218 41.4005 0.0000 24.0208 24.0208 58.8218 58.8218 41.4005 41.4005 0.0000 0.0000 24.0208
17 24.0208 34.0147 11.0454 35.1710 20.8087 64.4748 24.0208 58.8218 41.4005 0.0000 24.0208 24.0208 58.8218 58.8218 41.4005 41.4005 0.0000 0.0000 24.0208
18 0.0000 33.5261 35.0000 14.1421 14.7648 43.0116 0.0000 36.2353 27.5136 24.0208 0.0000 0.0000 36.2353 36.2353 27.5136 27.5136 24.0208 24.0208 0.0000
;

param t : 0 1 2 3 4 5 6 9 12 15 7 8 10 11 13 14 16 17 18 :=
0 0.0000 33.5261 35.0000 14.1421 14.7648 43.0116 0.0000 36.2353 27.5136 24.0208 0.0000 0.0000 36.2353 36.2353 27.5136 27.5136 24.0208 24.0208 0.0000
1 33.5261 0.0000 40.6079 29.7321 19.2354 72.6223 33.5261 64.5368 19.9249 34.0147 33.5261 33.5261 64.5368 64.5368 19.9249 19.9249 34.0147 34.0147 33.5261
2 35.0000 40.6079 0.0000 46.0977 30.8707 74.3303 35.0000 69.1231 51.1077 11.0454 35.0000 35.0000 69.1231 69.1231 51.1077 51.1077 11.0454 11.0454 35.0000
3 14.1421 29.7321 46.0977 0.0000 17.2627 43.0116 14.1421 34.8281 16.0312 35.1710 14.1421 14.1421 34.8281 34.8281 16.0312 16.0312 35.1710 35.1710 14.1421
4 14.7648 19.2354 30.8707 17.2627 0.0000 56.6392 14.7648 49.2037 20.6155 20.8087 14.7648 14.7648 49.2037 49.2037 20.6155 20.6155 20.8087 20.8087 14.7648
5 43.0116 72.6223 74.3303 43.0116 56.6392 0.0000 43.0116 8.5440 57.2451 64.4748 43.0116 43.0116 8.5440 8.5440 57.2451 57.2451 64.4748 64.4748 43.0116
6 0.0000 33.5261 35.0000 14.1421 14.7648 43.0116 0.0000 36.2353 27.5136 24.0208 0.0000 0.0000 36.2353 36.2353 27.5136 27.5136 24.0208 24.0208 0.0000
9 36.2353 64.5368 69.1231 34.8281 49.2037 8.5440 36.2353 0.0000 48.7647 58.8218 36.2353 36.2353 0.0000 0.0000 48.7647 48.7647 58.8218 58.8218 36.2353
12 27.5136 19.9249 51.1077 16.0312 20.6155 57.2451 27.5136 48.7647 0.0000 41.4005 27.5136 27.5136 48.7647 48.7647 0.0000 0.0000 41.4005 41.4005 27.5136
15 24.0208 34.0147 11.0454 35.1710 20.8087 64.4748 24.0208 58.8218 41.4005 0.0000 24.0208 24.0208 58.8218 58.8218 41.4005 41.4005 0.0000 0.0000 24.0208
7 0.0000 33.5261 35.0000 14.1421 14.7648 43.0116 0.0000 36.2353 27.5136 24.0208 0.0000 0.0000 36.2353 36.2353 27.5136 27.5136 24.0208 24.0208 0.0000
8 0.0000 33.5261 35.0000 14.1421 14.7648 43.0116 0.0000 36.2353 27.5136 24.0208 0.0000 0.0000 36.2353 36.2353 27.5136 27.5136 24.0208 24.0208 0.0000
10 36.2353 64.5368 69.1231 34.8281 49.2037 8.5440 36.2353 0.0000 48.7647 58.8218 36.2353 36.2353 0.0000 0.0000 48.7647 48.7647 58.8218 58.8218 36.2353
11 36.2353 64.5368 69.1231 34.8281 49.2037 8.5440 36.2353 0.0000 48.7647 58.8218 36.2353 36.2353 0.0000 0.0000 48.7647 48.7647 58.8218 58.8218 36.2353
13 27.5136 19.9249 51.1077 16.0312 20.6155 57.2451 27.5136 48.7647 0.0000 41.4005 27.5136 27.5136 48.7647 48.7647 0.0000 0.0000 41.4005 41.4005 27.5136
14 27.5136 19.9249 51.1077 16.0312 20.6155 57.2451 27.5136 48.7647 0.0000 41.4005 27.5136 27.5136 48.7647 48.7647 0.0000 0.0000 41.4005 41.4005 27.5136
16 24.0208 34.0147 11.0454 35.1710 20.8087 64.4748 24.0208 58.8218 41.4005 0.0000 24.0208 24.0208 58.8218 58.8218 41.4005 41.4005 0.0000 0.0000 24.0208
17 24.0208 34.0147 11.0454 35.1710 20.8087 64.4748 24.0208 58.8218 41.4005 0.0000 24.0208 24.0208 58.8218 58.8218 41.4005 41.4005 0.0000 0.0000 24.0208
18 0.0000 33.5261 35.0000 14.1421 14.7648 43.0116 0.0000 36.2353 27.5136 24.0208 0.0000 0.0000 36.2353 36.2353 27.5136 27.5136 24.0208 24.0208 0.0000
;